c "30535.clq"
p edge 141 548
e 1 5
e 1 6
e 1 9
e 1 11
e 1 13
e 1 14
e 1 30
e 1 39
e 1 41
e 1 45
e 1 47
e 1 51
e 1 57
e 1 58
e 1 60
e 1 79
e 1 96
e 1 108
e 1 137
e 1 138
e 2 5
e 2 6
e 2 8
e 2 32
e 2 38
e 2 39
e 2 45
e 2 52
e 2 96
e 2 106
e 2 126
e 2 128
e 2 138
e 2 139
e 3 5
e 3 6
e 3 7
e 3 8
e 3 9
e 3 13
e 3 15
e 3 18
e 3 19
e 3 21
e 3 26
e 3 29
e 3 33
e 3 36
e 3 38
e 3 46
e 3 59
e 3 66
e 3 84
e 3 89
e 3 93
e 3 102
e 3 103
e 3 105
e 3 111
e 3 113
e 3 129
e 4 5
e 4 7
e 4 10
e 4 12
e 4 14
e 4 17
e 4 20
e 4 46
e 4 53
e 4 54
e 4 55
e 4 59
e 4 76
e 4 84
e 4 105
e 5 6
e 5 7
e 5 8
e 5 9
e 5 10
e 5 11
e 5 12
e 5 13
e 5 15
e 5 17
e 5 18
e 5 19
e 5 21
e 5 24
e 5 27
e 5 31
e 5 32
e 5 37
e 5 39
e 5 42
e 5 43
e 5 45
e 5 51
e 5 52
e 5 61
e 5 63
e 5 70
e 5 71
e 5 78
e 5 85
e 5 90
e 5 91
e 5 94
e 5 100
e 5 123
e 5 134
e 5 135
e 5 139
e 6 7
e 6 8
e 6 10
e 6 11
e 6 12
e 6 14
e 6 16
e 6 17
e 6 18
e 6 19
e 6 21
e 6 22
e 6 23
e 6 24
e 6 26
e 6 27
e 6 30
e 6 31
e 6 32
e 6 33
e 6 35
e 6 36
e 6 38
e 6 39
e 6 42
e 6 47
e 6 49
e 6 56
e 6 59
e 6 64
e 6 65
e 6 66
e 6 67
e 6 74
e 6 76
e 6 80
e 6 82
e 6 85
e 6 86
e 6 89
e 6 92
e 6 97
e 6 104
e 6 107
e 6 113
e 6 114
e 6 116
e 6 123
e 7 9
e 7 10
e 7 13
e 7 15
e 7 16
e 7 20
e 7 22
e 7 27
e 7 28
e 7 34
e 7 36
e 7 37
e 7 43
e 7 49
e 7 54
e 7 56
e 7 67
e 7 72
e 7 99
e 7 102
e 7 106
e 7 112
e 7 118
e 7 132
e 7 139
e 8 26
e 8 68
e 8 69
e 8 72
e 8 73
e 8 74
e 8 85
e 8 104
e 8 108
e 8 126
e 9 25
e 9 26
e 9 28
e 9 29
e 9 52
e 9 53
e 9 72
e 9 96
e 9 98
e 9 127
e 9 141
e 10 11
e 10 16
e 10 20
e 10 21
e 10 23
e 10 25
e 10 28
e 10 33
e 10 35
e 10 40
e 10 46
e 10 49
e 10 60
e 10 69
e 10 82
e 10 85
e 10 86
e 10 91
e 10 92
e 10 95
e 10 119
e 10 123
e 10 135
e 11 12
e 11 20
e 11 22
e 11 29
e 11 30
e 11 49
e 11 54
e 11 55
e 11 78
e 11 86
e 11 91
e 11 101
e 11 110
e 11 122
e 12 16
e 12 28
e 12 34
e 12 40
e 12 43
e 12 53
e 12 61
e 12 64
e 12 73
e 12 124
e 13 14
e 13 30
e 13 48
e 13 71
e 13 75
e 13 78
e 13 89
e 13 105
e 14 15
e 14 24
e 14 25
e 14 29
e 14 44
e 14 47
e 14 50
e 14 53
e 14 75
e 14 87
e 14 88
e 14 103
e 15 45
e 15 70
e 16 17
e 16 18
e 16 25
e 16 41
e 16 62
e 16 77
e 16 80
e 16 125
e 17 23
e 17 62
e 17 72
e 17 77
e 17 79
e 17 116
e 18 19
e 18 22
e 18 23
e 18 24
e 18 31
e 18 34
e 18 35
e 18 37
e 18 40
e 18 41
e 18 48
e 18 50
e 18 56
e 18 58
e 18 60
e 18 63
e 18 66
e 18 69
e 18 71
e 18 76
e 18 77
e 18 79
e 18 80
e 18 99
e 18 103
e 18 120
e 18 133
e 19 52
e 19 57
e 19 76
e 19 119
e 19 138
e 20 48
e 20 61
e 21 27
e 21 32
e 21 73
e 21 98
e 21 132
e 22 31
e 22 36
e 22 42
e 22 44
e 22 60
e 22 75
e 22 83
e 22 91
e 22 110
e 22 124
e 22 125
e 22 130
e 23 50
e 23 55
e 24 33
e 24 42
e 24 43
e 24 44
e 24 63
e 24 82
e 24 90
e 24 120
e 24 127
e 24 132
e 26 58
e 26 86
e 26 89
e 26 95
e 26 97
e 26 107
e 26 135
e 27 54
e 27 79
e 27 81
e 27 107
e 27 120
e 28 101
e 28 125
e 29 65
e 30 34
e 30 64
e 30 106
e 30 126
e 30 128
e 30 136
e 30 141
e 31 68
e 33 35
e 33 37
e 33 41
e 33 56
e 33 57
e 33 59
e 33 69
e 33 95
e 34 83
e 35 136
e 36 38
e 36 40
e 36 46
e 36 57
e 36 65
e 36 74
e 36 92
e 36 127
e 37 73
e 37 122
e 39 44
e 39 88
e 39 109
e 39 133
e 40 68
e 41 75
e 41 101
e 42 47
e 42 48
e 43 51
e 43 78
e 43 109
e 43 114
e 43 116
e 43 129
e 44 62
e 45 50
e 45 65
e 45 70
e 45 74
e 45 111
e 45 130
e 46 51
e 46 95
e 47 55
e 47 84
e 47 88
e 47 103
e 47 115
e 47 119
e 47 131
e 47 138
e 47 141
e 48 61
e 48 62
e 48 139
e 49 64
e 49 67
e 49 119
e 50 116
e 51 66
e 51 67
e 51 81
e 51 87
e 51 112
e 51 118
e 51 121
e 51 124
e 52 94
e 53 63
e 53 102
e 53 124
e 54 58
e 54 92
e 54 94
e 54 97
e 54 113
e 55 80
e 55 129
e 56 71
e 56 81
e 56 83
e 56 93
e 56 104
e 56 105
e 57 130
e 58 111
e 58 120
e 58 141
e 59 81
e 59 83
e 59 97
e 59 109
e 59 134
e 59 136
e 60 84
e 60 112
e 60 121
e 61 70
e 61 90
e 61 100
e 61 110
e 61 118
e 62 100
e 63 68
e 63 115
e 63 137
e 64 87
e 68 96
e 70 125
e 70 131
e 70 134
e 72 77
e 72 93
e 72 112
e 73 115
e 73 129
e 73 134
e 75 117
e 76 101
e 76 106
e 76 128
e 76 140
e 77 88
e 78 102
e 78 110
e 78 114
e 78 128
e 78 133
e 80 82
e 81 87
e 81 90
e 82 99
e 82 114
e 83 93
e 83 99
e 84 122
e 85 109
e 86 126
e 86 130
e 88 135
e 89 121
e 90 98
e 92 98
e 92 100
e 93 94
e 93 136
e 94 127
e 95 108
e 95 121
e 96 107
e 96 115
e 98 108
e 98 113
e 99 118
e 100 104
e 100 117
e 103 122
e 103 137
e 103 140
e 108 111
e 110 117
e 110 132
e 111 131
e 112 133
e 114 140
e 115 123
e 116 117
e 126 131
e 135 137
e 137 140
